data/mip_solutions/furman_sahinidis/transportation/9sp-has1_gurobi.sol
Elapsed time: 0.115047931671
Nodes explored: 0
Upper bound: 13.0
Lower bound: 13.0
y[0,2]=1
y[0,3]=1
y[1,0]=1
y[1,2]=1
y[1,4]=1
y[2,0]=1
y[2,2]=1
y[3,1]=1
y[4,1]=1
y[4,3]=1
y[5,1]=1
y[5,2]=1
y[5,3]=1
q[0,3,2,3]=1250.0
q[0,3,3,3]=500.0
q[0,4,3,4]=250.0
q[0,5,3,5]=250.0
q[0,6,3,6]=250.0
q[0,7,2,7]=250.0
q[1,5,0,5]=750.0
q[1,5,2,5]=500.0
q[1,5,2,6]=250.0
q[1,5,3,5]=2.27373675443e-13
q[1,6,2,6]=250.0
q[1,6,4,8]=1250.0
q[1,7,2,7]=2750.0
q[1,7,4,8]=3250.0
q[2,2,0,3]=2250.0
q[2,2,2,2]=1500.0
q[2,2,2,3]=100.0
q[2,2,2,4]=500.0
q[2,3,0,4]=750.0
q[2,3,2,3]=2150.0
q[3,1,1,1]=1700.0
q[3,1,3,1]=2.27373675443e-13
q[3,2,1,3]=300.0
q[3,3,1,3]=500.0
q[4,2,1,2]=2100.0
q[4,2,1,3]=200.0
q[4,2,3,2]=350.0
q[4,2,3,3]=1250.0
q[4,3,1,3]=3900.0
q[5,0,1,1]=8800.0
q[5,0,2,1]=8500.0
q[5,0,3,1]=750.0
q[5,0,3,2]=400.0
